
  22   10
  10   10   10   10   10   10   10   10   10   10

   0   0   0   0   0   0   0   0   0   0   0   4 2 3 4 8 
   5  10  10  10  10  10  10  10  10  10  10   3 11 9 7 
   2  10  10  10  10  10  10  10  10  10  10   2 7 6 
   8  10  10  10  10  10  10  10  10  10  10   1 5 
   4  10  10  10  10  10  10  10  10  10  10   4 16 14 11 10 
   6  10  10  10  10  10  10  10  10  10  10   4 16 14 11 10 
  10  10  10  10  10  10  10  10  10  10  10   4 16 14 12 10 
  10  10  10  10  10  10  10  10  10  10  10   3 16 12 10 
   8  10  10  10  10  10  10  10  10  10  10   3 16 13 12 
   3  10  10  10  10  10  10  10  10  10  10   3 21 17 13 
   4  10  10  10  10  10  10  10  10  10  10   1 12 
   1  10  10  10  10  10  10  10  10  10  10   3 20 19 15 
   5  10  10  10  10  10  10  10  10  10  10   2 19 15 
   5  10  10  10  10  10  10  10  10  10  10   1 15 
   2  10  10  10  10  10  10  10  10  10  10   1 18 
   3  10  10  10  10  10  10  10  10  10  10   1 19 
  10  10  10  10  10  10  10  10  10  10  10   1 18 
   7  10  10  10  10  10  10  10  10  10  10   1 22
   6  10  10  10  10  10  10  10  10  10  10   1 22
   7  10  10  10  10  10  10  10  10  10  10   1 22
   7  10  10  10  10  10  10  10  10  10  10   1 22
   0   0   0   0   0   0   0   0   0   0   0   0 
